LatticeConstant 1.0 Ang
%block LatticeVectors
 23.22000000 0.00000000 0.00000000
 -11.61000000 20.10910988 0.00000000
 0.00000000 0.00000000 20.00000000
%endblock LatticeVectors

NumberOfAtoms 72
AtomicCoordinatesFormat Ang
%block AtomicCoordinatesAndAtomicSpecies
  0.00000000  0.00000000 -0.22000000 1 #  1: Si
  1.93500000  1.11717277  0.22000000 1 #  2: Si
  3.87000000  0.00000000 -0.22000000 1 #  3: Si
  5.80500000  1.11717277  0.22000000 1 #  4: Si
  7.74000000  0.00000000 -0.22000000 1 #  5: Si
  9.67500000  1.11717277  0.22000000 1 #  6: Si
 11.61000000  0.00000000 -0.22000000 1 #  7: Si
 13.54500000  1.11717277  0.22000000 1 #  8: Si
 15.48000000  0.00000000 -0.22000000 1 #  9: Si
 17.41500000  1.11717277  0.22000000 1 # 10: Si
 19.35000000  0.00000000 -0.22000000 1 # 11: Si
 21.28500000  1.11717277  0.22000000 1 # 12: Si
 -1.93500000  3.35151831 -0.22000000 1 # 13: Si
  0.00000000  4.46869108  0.22000000 1 # 14: Si
  1.93500000  3.35151831 -0.22000000 1 # 15: Si
  3.87000000  4.46869108  0.22000000 1 # 16: Si
  5.80500000  3.35151831 -0.22000000 1 # 17: Si
  7.74000000  4.46869108  0.22000000 1 # 18: Si
  9.67500000  3.35151831 -0.22000000 1 # 19: Si
 11.61000000  4.46869108  0.22000000 1 # 20: Si
 13.54500000  3.35151831 -0.22000000 1 # 21: Si
 15.48000000  4.46869108  0.22000000 1 # 22: Si
 17.41500000  3.35151831 -0.22000000 1 # 23: Si
 19.35000000  4.46869108  0.22000000 1 # 24: Si
 -3.87000000  6.70303663 -0.22000000 1 # 25: Si
 -1.93500000  7.82020940  0.22000000 1 # 26: Si
  0.00000000  6.70303663 -0.22000000 1 # 27: Si
  1.93500000  7.82020940  0.22000000 1 # 28: Si
  3.87000000  6.70303663 -0.22000000 1 # 29: Si
  5.80500000  7.82020940  0.22000000 1 # 30: Si
  7.74000000  6.70303663 -0.22000000 1 # 31: Si
  9.67500000  7.82020940  0.22000000 1 # 32: Si
 11.61000000  6.70303663 -0.22000000 1 # 33: Si
 13.54500000  7.82020940  0.22000000 1 # 34: Si
 15.48000000  6.70303663 -0.22000000 1 # 35: Si
 17.41500000  7.82020940  0.22000000 1 # 36: Si
 -5.80500000 10.05455494 -0.22000000 1 # 37: Si
 -3.87000000 11.17172771  0.22000000 1 # 38: Si
 -1.93500000 10.05455494 -0.22000000 1 # 39: Si
  0.00000000 11.17172771  0.22000000 1 # 40: Si
  1.93500000 10.05455494 -0.22000000 1 # 41: Si
  3.87000000 11.17172771  0.22000000 1 # 42: Si
  5.80500000 10.05455494 -0.22000000 1 # 43: Si
  7.74000000 11.17172771  0.22000000 1 # 44: Si
  9.67500000 10.05455494 -0.22000000 1 # 45: Si
 11.61000000 11.17172771  0.22000000 1 # 46: Si
 13.54500000 10.05455494 -0.22000000 1 # 47: Si
 15.48000000 11.17172771  0.22000000 1 # 48: Si
 -7.74000000 13.40607325 -0.22000000 1 # 49: Si
 -5.80500000 14.52324602  0.22000000 1 # 50: Si
 -3.87000000 13.40607325 -0.22000000 1 # 51: Si
 -1.93500000 14.52324602  0.22000000 1 # 52: Si
  0.00000000 13.40607325 -0.22000000 1 # 53: Si
  1.93500000 14.52324602  0.22000000 1 # 54: Si
  3.87000000 13.40607325 -0.22000000 1 # 55: Si
  5.80500000 14.52324602  0.22000000 1 # 56: Si
  7.74000000 13.40607325 -0.22000000 1 # 57: Si
  9.67500000 14.52324602  0.22000000 1 # 58: Si
 11.61000000 13.40607325 -0.22000000 1 # 59: Si
 13.54500000 14.52324602  0.22000000 1 # 60: Si
 -9.67500000 16.75759156 -0.22000000 1 # 61: Si
 -7.74000000 17.87476433  0.22000000 1 # 62: Si
 -5.80500000 16.75759156 -0.22000000 1 # 63: Si
 -3.87000000 17.87476433  0.22000000 1 # 64: Si
 -1.93500000 16.75759156 -0.22000000 1 # 65: Si
  0.00000000 17.87476433  0.22000000 1 # 66: Si
  1.93500000 16.75759156 -0.22000000 1 # 67: Si
  3.87000000 17.87476433  0.22000000 1 # 68: Si
  5.80500000 16.75759156 -0.22000000 1 # 69: Si
  7.74000000 17.87476433  0.22000000 1 # 70: Si
  9.67500000 16.75759156 -0.22000000 1 # 71: Si
 11.61000000 17.87476433  0.22000000 1 # 72: Si
%endblock AtomicCoordinatesAndAtomicSpecies

NumberOfSpecies 1
%block ChemicalSpeciesLabel
 1 14 Si
%endblock ChemicalSpeciesLabel

# Paràmetres d'optimització
MD.TypeOfRun CG
MD.NumCGsteps 50
MD.MaxForceTol 0.05 eV/Ang

# Paràmetres bàsics de càlcul
MeshCutoff 200 Ry
PAO.BasisSize DZP

# Pseudopotencials
%block ChemicalSpeciesLabel
  14 14 Si
%endblock ChemicalSpeciesLabel
