LatticeConstant 1.0 Ang
%block LatticeVectors
 23.13000000 0.00000000 0.00000000
 -11.56500000 20.03116759 0.00000000
 0.00000000 0.00000000 20.00000000
%endblock LatticeVectors

NumberOfAtoms 72
AtomicCoordinatesFormat Ang
%block AtomicCoordinatesAndAtomicSpecies
  0.00000000  0.00000000 -0.22350000 1 #  1: Si
  1.92750000  1.11284264  0.22350000 1 #  2: Si
  3.85500000  0.00000000 -0.22350000 1 #  3: Si
  5.78250000  1.11284264  0.22350000 1 #  4: Si
  7.71000000  0.00000000 -0.22350000 1 #  5: Si
  9.63750000  1.11284264  0.22350000 1 #  6: Si
 11.56500000  0.00000000 -0.22350000 1 #  7: Si
 13.49250000  1.11284264  0.22350000 1 #  8: Si
 15.42000000  0.00000000 -0.22350000 1 #  9: Si
 17.34750000  1.11284264  0.22350000 1 # 10: Si
 19.27500000  0.00000000 -0.22350000 1 # 11: Si
 21.20250000  1.11284264  0.22350000 1 # 12: Si
 -1.92750000  3.33852793 -0.22350000 1 # 13: Si
  0.00000000  4.45137058  0.22350000 1 # 14: Si
  1.92750000  3.33852793 -0.22350000 1 # 15: Si
  3.85500000  4.45137058  0.22350000 1 # 16: Si
  5.78250000  3.33852793 -0.22350000 1 # 17: Si
  7.71000000  4.45137058  0.22350000 1 # 18: Si
  9.63750000  3.33852793 -0.22350000 1 # 19: Si
 11.56500000  4.45137058  0.22350000 1 # 20: Si
 13.49250000  3.33852793 -0.22350000 1 # 21: Si
 15.42000000  4.45137058  0.22350000 1 # 22: Si
 17.34750000  3.33852793 -0.22350000 1 # 23: Si
 19.27500000  4.45137058  0.22350000 1 # 24: Si
 -3.85500000  6.67705586 -0.22350000 1 # 25: Si
 -1.92750000  7.78989851  0.22350000 1 # 26: Si
  0.00000000  6.67705586 -0.22350000 1 # 27: Si
  1.92750000  7.78989851  0.22350000 1 # 28: Si
  3.85500000  6.67705586 -0.22350000 1 # 29: Si
  5.78250000  7.78989851  0.22350000 1 # 30: Si
  7.71000000  6.67705586 -0.22350000 1 # 31: Si
  9.63750000  7.78989851  0.22350000 1 # 32: Si
 11.56500000  6.67705586 -0.22350000 1 # 33: Si
 13.49250000  7.78989851  0.22350000 1 # 34: Si
 15.42000000  6.67705586 -0.22350000 1 # 35: Si
 17.34750000  7.78989851  0.22350000 1 # 36: Si
 -5.78250000 10.01558379 -0.22350000 1 # 37: Si
 -3.85500000 11.12842644  0.22350000 1 # 38: Si
 -1.92750000 10.01558379 -0.22350000 1 # 39: Si
  0.00000000 11.12842644  0.22350000 1 # 40: Si
  1.92750000 10.01558379 -0.22350000 1 # 41: Si
  3.85500000 11.12842644  0.22350000 1 # 42: Si
  5.78250000 10.01558379 -0.22350000 1 # 43: Si
  7.71000000 11.12842644  0.22350000 1 # 44: Si
  9.63750000 10.01558379 -0.22350000 1 # 45: Si
 11.56500000 11.12842644  0.22350000 1 # 46: Si
 13.49250000 10.01558379 -0.22350000 1 # 47: Si
 15.42000000 11.12842644  0.22350000 1 # 48: Si
 -7.71000000 13.35411173 -0.22350000 1 # 49: Si
 -5.78250000 14.46695437  0.22350000 1 # 50: Si
 -3.85500000 13.35411173 -0.22350000 1 # 51: Si
 -1.92750000 14.46695437  0.22350000 1 # 52: Si
  0.00000000 13.35411173 -0.22350000 1 # 53: Si
  1.92750000 14.46695437  0.22350000 1 # 54: Si
  3.85500000 13.35411173 -0.22350000 1 # 55: Si
  5.78250000 14.46695437  0.22350000 1 # 56: Si
  7.71000000 13.35411173 -0.22350000 1 # 57: Si
  9.63750000 14.46695437  0.22350000 1 # 58: Si
 11.56500000 13.35411173 -0.22350000 1 # 59: Si
 13.49250000 14.46695437  0.22350000 1 # 60: Si
 -9.63750000 16.69263966 -0.22350000 1 # 61: Si
 -7.71000000 17.80548230  0.22350000 1 # 62: Si
 -5.78250000 16.69263966 -0.22350000 1 # 63: Si
 -3.85500000 17.80548230  0.22350000 1 # 64: Si
 -1.92750000 16.69263966 -0.22350000 1 # 65: Si
  0.00000000 17.80548230  0.22350000 1 # 66: Si
  1.92750000 16.69263966 -0.22350000 1 # 67: Si
  3.85500000 17.80548230  0.22350000 1 # 68: Si
  5.78250000 16.69263966 -0.22350000 1 # 69: Si
  7.71000000 17.80548230  0.22350000 1 # 70: Si
  9.63750000 16.69263966 -0.22350000 1 # 71: Si
 11.56500000 17.80548230  0.22350000 1 # 72: Si
%endblock AtomicCoordinatesAndAtomicSpecies

NumberOfSpecies 1
%block ChemicalSpeciesLabel
 1 14 Si
%endblock ChemicalSpeciesLabel

%block kgrid_Monkhorst_Pack
6 0 0 0.0
0 6 0 0.0
0 0 1 0.0
%endblock kgrid_Monkhorst_Pack

BandLinesScale    pi/a
%block BandLines
1 0.0 0.0 0.0 \Gamma
38 0.5 0.0 0.0 M
36 0.33 0.33 .33 K
18 0.0 0.0 0.0 \Gamma
%endblock BandLines


# Pseudopotencials
%block ChemicalSpeciesLabel
  1 14 Si
%endblock ChemicalSpeciesLabel
